%chk=C2H2.chk
%mem=15GB
%nprocshared=6
#P NoSYmm PBE1PBE GEN  SCF(Tight,XQC)

C2H2

0 1
C
C,1,CC
X,2,1.,1,90.
H,2,CH,3,90.,1,180.,0
X,1,1.,2,90.,3,180.,0
H,1,CH,5,90.,2,180.,0
 
CC=1.203142
CH=1.062605

@./mg3s.gbs






--Link1--
%chk=C2H2.chk
%mem=15GB
%nprocshared=6
%subst l301  /home/eproynov/gdv-i10p-nomod/MRC2-midR/exe-dir/
%subst l302 /home/eproynov/gdv-i10p-nomod/MRC2-midR/exe-dir/
%subst l303 /home/eproynov/gdv-i10p-nomod/MRC2-midR/exe-dir/
%subst l401 /home/eproynov/gdv-i10p-nomod/MRC2-midR/exe-dir/
%subst l502 /home/eproynov/gdv-i10p-nomod/MRC2-midR/exe-dir/
%subst l508 /home/eproynov/gdv-i10p-nomod/MRC2-midR/exe-dir/
%subst l601 /home/eproynov/gdv-i10p-nomod/MRC2-midR/exe-dir/
%subst l701 /home/eproynov/gdv-i10p-nomod/MRC2-midR/exe-dir/
%subst l702 /home/eproynov/gdv-i10p-nomod/MRC2-midR/exe-dir/
%subst l703 /home/eproynov/gdv-i10p-nomod/MRC2-midR/exe-dir/
%subst l716 /home/eproynov/gdv-i10p-nomod/MRC2-midR/exe-dir/
%subst l801 /home/eproynov/gdv-i10p-nomod/MRC2-midR/exe-dir/
%subst l804 /home/eproynov/gdv-i10p-nomod/MRC2-midR/exe-dir/
%subst l902 /home/eproynov/gdv-i10p-nomod/MRC2-midR/exe-dir/
%subst l914  /home/eproynov/gdv-i10p-nomod/MRC2-midR/exe-dir/
%subst l1002 /home/eproynov/gdv-i10p-nomod/MRC2-midR/exe-dir/
%subst l1101 /home/eproynov/gdv-i10p-nomod/MRC2-midR/exe-dir/
%subst l1102 /home/eproynov/gdv-i10p-nomod/MRC2-midR/exe-dir/
%subst l1110 /home/eproynov/gdv-i10p-nomod/MRC2-midR/exe-dir/
%subst l9999 /home/eproynov/gdv-i10p-nomod/MRC2-midR/exe-dir/
#P NoSymm ChkBasis Geom=AllCheck Guess=Read IOp(99/5=2,5/13=1) Stable=Opt iop(3/116=2)
integral(grid=ultrafine,nodftcut) SCF(Tight,XQC,NoVarAcc,NoIncFock,NoSave,MaxCyc=900)
 iop(3/163=0100400013) iop(3/74=6509)
IOp(3/76=1000010000)
iop(3/107=0570012500,3/108=0570012500)
iop(3/119=1000010000,3/120=1000010000)
IOp(3/130=-1,3/131=1110000,3/33=1,5/33=1)


