#####################################
# CH3SH-HCl  G09 B3LYP/6-311++G** opt
#####################################
%molecule
0 1
  6     1.856976    1.054304    0.020693
  1     1.769797    1.464654   -0.984554
  1     2.898167    1.100517    0.335229
  1     1.225759    1.629234    0.696418
 16     1.293831   -0.690502   -0.090001
  1     1.446334   -1.002937    1.213334
 17    -2.246585    0.106058    0.007033
  1    -0.991279   -0.272251   -0.064123
%end
